experimental-results/reproduced-data/fig4/urquhart-simon-03-02.cnf
c Random Instance of Urquhart's Problem for SAT (size=3 randomSeed=2).
c Like Hole, this problem as been proved to be exponential for resolution.
c N.B. : instance is unsatisfiable by construction.
c 
c Come from the paper 'Hard Examples for Resolution'.
c        Source : Laurent Simon, simon@lri.fr. May 1999.
c 
c n=3, so there is m^2=9 vertices in each part of the bipartite graph. 
c Bases creations : 
c   - a '1' charge is 'there must be an even number of negated vars'
c   - edges contains variables from which all subbases are constructed.
c vertex A0 :(charge=0), (edges=[31,32,2,25,37])
c vertex A1 :(charge=1), (edges=[5,33,12,37,42])
c vertex A2 :(charge=0), (edges=[36,26,1,42,29])
c vertex A3 :(charge=0), (edges=[40,9,30,29,10])
c vertex A4 :(charge=1), (edges=[20,28,35,24,10,16])
c vertex A5 :(charge=0), (edges=[7,39,16,3])
c vertex A6 :(charge=0), (edges=[21,3,15])
c vertex A7 :(charge=1), (edges=[38,15,41])
c vertex A8 :(charge=1), (edges=[13,19,8,4,23,41])
c vertex B0 :(charge=1), (edges=[31,23,17])
c vertex B1 :(charge=0), (edges=[38,35,19,17,34])
c vertex B2 :(charge=1), (edges=[40,8,34,18])
c vertex B3 :(charge=1), (edges=[36,32,30,39,18,27])
c vertex B4 :(charge=1), (edges=[13,26,27,14])
c vertex B5 :(charge=1), (edges=[20,33,1,9,14,6])
c vertex B6 :(charge=1), (edges=[21,2,12,28,4,6,11])
c vertex B7 :(charge=0), (edges=[5,25,24,11,22])
c vertex B8 :(charge=1), (edges=[7,22])
c 
p cnf 42 326
31 32 2 25 -37 0
31 32 2 -25 37 0
31 32 -2 25 37 0
31 32 -2 -25 -37 0
31 -32 2 25 37 0
31 -32 2 -25 -37 0
31 -32 -2 25 -37 0
31 -32 -2 -25 37 0
-31 32 2 25 37 0
-31 32 2 -25 -37 0
-31 32 -2 25 -37 0
-31 32 -2 -25 37 0
-31 -32 2 25 -37 0
-31 -32 2 -25 37 0
-31 -32 -2 25 37 0
-31 -32 -2 -25 -37 0
5 33 12 37 42 0
5 33 12 -37 -42 0
5 33 -12 37 -42 0
5 33 -12 -37 42 0
5 -33 12 37 -42 0
5 -33 12 -37 42 0
5 -33 -12 37 42 0
5 -33 -12 -37 -42 0
-5 33 12 37 -42 0
-5 33 12 -37 42 0
-5 33 -12 37 42 0
-5 33 -12 -37 -42 0
-5 -33 12 37 42 0
-5 -33 12 -37 -42 0
-5 -33 -12 37 -42 0
-5 -33 -12 -37 42 0
36 26 1 42 -29 0
36 26 1 -42 29 0
36 26 -1 42 29 0
36 26 -1 -42 -29 0
36 -26 1 42 29 0
36 -26 1 -42 -29 0
36 -26 -1 42 -29 0
36 -26 -1 -42 29 0
-36 26 1 42 29 0
-36 26 1 -42 -29 0
-36 26 -1 42 -29 0
-36 26 -1 -42 29 0
-36 -26 1 42 -29 0
-36 -26 1 -42 29 0
-36 -26 -1 42 29 0
-36 -26 -1 -42 -29 0
40 9 30 29 -10 0
40 9 30 -29 10 0
40 9 -30 29 10 0
40 9 -30 -29 -10 0
40 -9 30 29 10 0
40 -9 30 -29 -10 0
40 -9 -30 29 -10 0
40 -9 -30 -29 10 0
-40 9 30 29 10 0
-40 9 30 -29 -10 0
-40 9 -30 29 -10 0
-40 9 -30 -29 10 0
-40 -9 30 29 -10 0
-40 -9 30 -29 10 0
-40 -9 -30 29 10 0
-40 -9 -30 -29 -10 0
20 28 35 24 10 16 0
20 28 35 24 -10 -16 0
20 28 35 -24 10 -16 0
20 28 35 -24 -10 16 0
20 28 -35 24 10 -16 0
20 28 -35 24 -10 16 0
20 28 -35 -24 10 16 0
20 28 -35 -24 -10 -16 0
20 -28 35 24 10 -16 0
20 -28 35 24 -10 16 0
20 -28 35 -24 10 16 0
20 -28 35 -24 -10 -16 0
20 -28 -35 24 10 16 0
20 -28 -35 24 -10 -16 0
20 -28 -35 -24 10 -16 0
20 -28 -35 -24 -10 16 0
-20 28 35 24 10 -16 0
-20 28 35 24 -10 16 0
-20 28 35 -24 10 16 0
-20 28 35 -24 -10 -16 0
-20 28 -35 24 10 16 0
-20 28 -35 24 -10 -16 0
-20 28 -35 -24 10 -16 0
-20 28 -35 -24 -10 16 0
-20 -28 35 24 10 16 0
-20 -28 35 24 -10 -16 0
-20 -28 35 -24 10 -16 0
-20 -28 35 -24 -10 16 0
-20 -28 -35 24 10 -16 0
-20 -28 -35 24 -10 16 0
-20 -28 -35 -24 10 16 0
-20 -28 -35 -24 -10 -16 0
7 39 16 -3 0
7 39 -16 3 0
7 -39 16 3 0
7 -39 -16 -3 0
-7 39 16 3 0
-7 39 -16 -3 0
-7 -39 16 -3 0
-7 -39 -16 3 0
21 3 -15 0
21 -3 15 0
-21 3 15 0
-21 -3 -15 0
38 15 41 0
38 -15 -41 0
-38 15 -41 0
-38 -15 41 0
13 19 8 4 23 41 0
13 19 8 4 -23 -41 0
13 19 8 -4 23 -41 0
13 19 8 -4 -23 41 0
13 19 -8 4 23 -41 0
13 19 -8 4 -23 41 0
13 19 -8 -4 23 41 0
13 19 -8 -4 -23 -41 0
13 -19 8 4 23 -41 0
13 -19 8 4 -23 41 0
13 -19 8 -4 23 41 0
13 -19 8 -4 -23 -41 0
13 -19 -8 4 23 41 0
13 -19 -8 4 -23 -41 0
13 -19 -8 -4 23 -41 0
13 -19 -8 -4 -23 41 0
-13 19 8 4 23 -41 0
-13 19 8 4 -23 41 0
-13 19 8 -4 23 41 0
-13 19 8 -4 -23 -41 0
-13 19 -8 4 23 41 0
-13 19 -8 4 -23 -41 0
-13 19 -8 -4 23 -41 0
-13 19 -8 -4 -23 41 0
-13 -19 8 4 23 41 0
-13 -19 8 4 -23 -41 0
-13 -19 8 -4 23 -41 0
-13 -19 8 -4 -23 41 0
-13 -19 -8 4 23 -41 0
-13 -19 -8 4 -23 41 0
-13 -19 -8 -4 23 41 0
-13 -19 -8 -4 -23 -41 0
31 23 17 0
31 -23 -17 0
-31 23 -17 0
-31 -23 17 0
38 35 19 17 -34 0
38 35 19 -17 34 0
38 35 -19 17 34 0
38 35 -19 -17 -34 0
38 -35 19 17 34 0
38 -35 19 -17 -34 0
38 -35 -19 17 -34 0
38 -35 -19 -17 34 0
-38 35 19 17 34 0
-38 35 19 -17 -34 0
-38 35 -19 17 -34 0
-38 35 -19 -17 34 0
-38 -35 19 17 -34 0
-38 -35 19 -17 34 0
-38 -35 -19 17 34 0
-38 -35 -19 -17 -34 0
40 8 34 18 0
40 8 -34 -18 0
40 -8 34 -18 0
40 -8 -34 18 0
-40 8 34 -18 0
-40 8 -34 18 0
-40 -8 34 18 0
-40 -8 -34 -18 0
36 32 30 39 18 27 0
36 32 30 39 -18 -27 0
36 32 30 -39 18 -27 0
36 32 30 -39 -18 27 0
36 32 -30 39 18 -27 0
36 32 -30 39 -18 27 0
36 32 -30 -39 18 27 0
36 32 -30 -39 -18 -27 0
36 -32 30 39 18 -27 0
36 -32 30 39 -18 27 0
36 -32 30 -39 18 27 0
36 -32 30 -39 -18 -27 0
36 -32 -30 39 18 27 0
36 -32 -30 39 -18 -27 0
36 -32 -30 -39 18 -27 0
36 -32 -30 -39 -18 27 0
-36 32 30 39 18 -27 0
-36 32 30 39 -18 27 0
-36 32 30 -39 18 27 0
-36 32 30 -39 -18 -27 0
-36 32 -30 39 18 27 0
-36 32 -30 39 -18 -27 0
-36 32 -30 -39 18 -27 0
-36 32 -30 -39 -18 27 0
-36 -32 30 39 18 27 0
-36 -32 30 39 -18 -27 0
-36 -32 30 -39 18 -27 0
-36 -32 30 -39 -18 27 0
-36 -32 -30 39 18 -27 0
-36 -32 -30 39 -18 27 0
-36 -32 -30 -39 18 27 0
-36 -32 -30 -39 -18 -27 0
13 26 27 14 0
13 26 -27 -14 0
13 -26 27 -14 0
13 -26 -27 14 0
-13 26 27 -14 0
-13 26 -27 14 0
-13 -26 27 14 0
-13 -26 -27 -14 0
20 33 1 9 14 6 0
20 33 1 9 -14 -6 0
20 33 1 -9 14 -6 0
20 33 1 -9 -14 6 0
20 33 -1 9 14 -6 0
20 33 -1 9 -14 6 0
20 33 -1 -9 14 6 0
20 33 -1 -9 -14 -6 0
20 -33 1 9 14 -6 0
20 -33 1 9 -14 6 0
20 -33 1 -9 14 6 0
20 -33 1 -9 -14 -6 0
20 -33 -1 9 14 6 0
20 -33 -1 9 -14 -6 0
20 -33 -1 -9 14 -6 0
20 -33 -1 -9 -14 6 0
-20 33 1 9 14 -6 0
-20 33 1 9 -14 6 0
-20 33 1 -9 14 6 0
-20 33 1 -9 -14 -6 0
-20 33 -1 9 14 6 0
-20 33 -1 9 -14 -6 0
-20 33 -1 -9 14 -6 0
-20 33 -1 -9 -14 6 0
-20 -33 1 9 14 6 0
-20 -33 1 9 -14 -6 0
-20 -33 1 -9 14 -6 0
-20 -33 1 -9 -14 6 0
-20 -33 -1 9 14 -6 0
-20 -33 -1 9 -14 6 0
-20 -33 -1 -9 14 6 0
-20 -33 -1 -9 -14 -6 0
21 2 12 28 4 6 11 0
21 2 12 28 4 -6 -11 0
21 2 12 28 -4 6 -11 0
21 2 12 28 -4 -6 11 0
21 2 12 -28 4 6 -11 0
21 2 12 -28 4 -6 11 0
21 2 12 -28 -4 6 11 0
21 2 12 -28 -4 -6 -11 0
21 2 -12 28 4 6 -11 0
21 2 -12 28 4 -6 11 0
21 2 -12 28 -4 6 11 0
21 2 -12 28 -4 -6 -11 0
21 2 -12 -28 4 6 11 0
21 2 -12 -28 4 -6 -11 0
21 2 -12 -28 -4 6 -11 0
21 2 -12 -28 -4 -6 11 0
21 -2 12 28 4 6 -11 0
21 -2 12 28 4 -6 11 0
21 -2 12 28 -4 6 11 0
21 -2 12 28 -4 -6 -11 0
21 -2 12 -28 4 6 11 0
21 -2 12 -28 4 -6 -11 0
21 -2 12 -28 -4 6 -11 0
21 -2 12 -28 -4 -6 11 0
21 -2 -12 28 4 6 11 0
21 -2 -12 28 4 -6 -11 0
21 -2 -12 28 -4 6 -11 0
21 -2 -12 28 -4 -6 11 0
21 -2 -12 -28 4 6 -11 0
21 -2 -12 -28 4 -6 11 0
21 -2 -12 -28 -4 6 11 0
21 -2 -12 -28 -4 -6 -11 0
-21 2 12 28 4 6 -11 0
-21 2 12 28 4 -6 11 0
-21 2 12 28 -4 6 11 0
-21 2 12 28 -4 -6 -11 0
-21 2 12 -28 4 6 11 0
-21 2 12 -28 4 -6 -11 0
-21 2 12 -28 -4 6 -11 0
-21 2 12 -28 -4 -6 11 0
-21 2 -12 28 4 6 11 0
-21 2 -12 28 4 -6 -11 0
-21 2 -12 28 -4 6 -11 0
-21 2 -12 28 -4 -6 11 0
-21 2 -12 -28 4 6 -11 0
-21 2 -12 -28 4 -6 11 0
-21 2 -12 -28 -4 6 11 0
-21 2 -12 -28 -4 -6 -11 0
-21 -2 12 28 4 6 11 0
-21 -2 12 28 4 -6 -11 0
-21 -2 12 28 -4 6 -11 0
-21 -2 12 28 -4 -6 11 0
-21 -2 12 -28 4 6 -11 0
-21 -2 12 -28 4 -6 11 0
-21 -2 12 -28 -4 6 11 0
-21 -2 12 -28 -4 -6 -11 0
-21 -2 -12 28 4 6 -11 0
-21 -2 -12 28 4 -6 11 0
-21 -2 -12 28 -4 6 11 0
-21 -2 -12 28 -4 -6 -11 0
-21 -2 -12 -28 4 6 11 0
-21 -2 -12 -28 4 -6 -11 0
-21 -2 -12 -28 -4 6 -11 0
-21 -2 -12 -28 -4 -6 11 0
5 25 24 11 -22 0
5 25 24 -11 22 0
5 25 -24 11 22 0
5 25 -24 -11 -22 0
5 -25 24 11 22 0
5 -25 24 -11 -22 0
5 -25 -24 11 -22 0
5 -25 -24 -11 22 0
-5 25 24 11 22 0
-5 25 24 -11 -22 0
-5 25 -24 11 -22 0
-5 25 -24 -11 22 0
-5 -25 24 11 -22 0
-5 -25 24 -11 22 0
-5 -25 -24 11 22 0
-5 -25 -24 -11 -22 0
7 22 0
-7 -22 0
